Minimize

15 x_0_0 + 48 x_0_1 + 46 x_0_2 + 80 x_1_0 + 30 x_1_1 + 30 x_1_2 + 180 x_2_0 + 50 x_2_1 + 175 x_2_2


Subject To

a0: x_0_0 + x_1_0 + x_2_0 <= 100
a1: x_0_1 + x_1_1 + x_2_1 <= 30
a2: x_0_2 + x_1_2 + x_2_2 <= 10
b0: x_0_0 + x_0_1 + x_0_2 >= 100
b1: x_1_0 + x_1_1 + x_1_2 >= 15
b2: x_2_0 + x_2_1 + x_2_2 >= 5





General

 x_0_0 x_0_1 x_0_2 x_1_0 x_1_1 x_1_2 x_2_0 x_2_1 x_2_2



End
